15,9	0,0	11,8	10,8	0,0	0,0	0,0	0,0	0,0	7,3
11,7	9,9	0,0	13,5	16,3	0,0	0,0	12,0	0,0	0,0
0,0	0,0	20,0	0,0	16,6	19,4	0,0	0,0	10,2	0,0
8,4	0,0	9,5	0,0	0,0	0,0	15,1	0,0	0,0	0,0
0,0	15,7	0,0	6,2	7,7	0,0	0,0	15,6	0,0	0,0
0,0	10,1	12,4	0,0	13,0	7,4	0,0	0,0	8,9	0,0
0,0	14,5	0,0	9,2	0,0	0,0	12,4	0,0	0,0	19,7
18,1	0,0	7,9	0,0	0,0	0,0	0,0	0,0	0,0	10,9
0,0	6,7	0,0	8,1	6,9	0,0	0,0	6,4	0,0	0,0
0,0	0,0	15,3	0,0	0,0	17,2	9,2	0,0	0,0	9,2
									
3,1	3,6	4,1	4,9	3,7	3,3	4,0	4,5	4,6	4,3
